GeneratedTests/Random_10/Random_10_14.tsp
NAME: Random_10_14
TYPE: TSP
DIMENSION: 10
EDGE_WEIGHT_TYPE: EUC_2D
NODE_COORD_SECTION
1 17.773378 14.217773
2 18.230812 29.3166
3 0.7958901 26.909111
4 12.135317 21.469742
5 21.926504 1.3205713
6 2.993619 28.674486
7 21.517899 18.999039
8 27.23261 21.584755
9 11.186348 12.544204
10 9.650334 26.245316
EOF
