GeneratedTests/Random_10/Random_10_14.txt
NAME: Random_10_14
TYPE: TSP
DIMENSION: 10
EDGE_WEIGHT_TYPE: EUC_2D
NODE_COORD_SECTION
1 18.433748 29.656792
2 1.4338195 7.817693
3 10.798124 2.4053745
4 27.009764 3.3835654
5 13.855417 1.6459823
6 9.938221 29.880873
7 27.050974 18.59364
8 25.67301 3.2556744
9 22.368254 12.997327
10 23.792326 26.255125
EOF
